c ren 1 -> 1
c ren 2 -> 2
c ren 3 -> 3
c ren 4 -> 4
c ren 5 -> 5
c ren 6 -> 6
c ren 7 -> 7
c ren 8 -> 8
c ren 9 -> 9
c ren 10 -> 10
c ren 12 -> 11
c ren 13 -> 12
c ren 14 -> 13
c ren 15 -> 14
c ren 17 -> 15
c ren 18 -> 16
c ren 19 -> 17
c ren 20 -> 18
c ren 21 -> 19
c ren 22 -> 20
c ren 23 -> 21
c ren 24 -> 22
c ren 25 -> 23
c ren 26 -> 24
c ren 27 -> 25
c ren 28 -> 26
c ren 29 -> 27
c ren 30 -> 28
c ren 31 -> 29
c ren 32 -> 30
c ren 36 -> 31
c ren 41 -> 32
c ren 44 -> 33
c ren 54 -> 34
c ren 59 -> 35
c ren 77 -> 36
c ren 80 -> 37
c ren 83 -> 38
p cnf 38 139
a 1 2 3 4 5 6 7 8 9 10 11 12 13 14 15 16 17 18 19 20 21 22 23 24 0
d 25 15 16 0
d 26 17 18 0
d 27 11 0
d 28 21 22 0
d 29 19 20 0
d 30 23 24 0
e 31 32 33 34 35 36 37 38 0
-1 -15 -31 0
1 2 -15 31 0
1 2 15 -31 0
-1 5 -6 -25 36 -37 -38 0
-3 -16 -32 0
3 4 -16 32 0
3 4 16 -32 0
-3 19 35 0
32 36 0
-10 12 -13 20 -21 -22 -25 -31 -32 -33 -34 -35 -36 0
-4 -19 -35 0
-17 -25 33 0
17 25 33 0
-17 25 -33 0
17 -25 -33 0
33 36 0
-10 12 -13 20 -21 22 25 -31 -32 -33 -34 -35 -36 0
-5 -18 -34 0
-1 5 7 9 -10 -25 36 -37 -38 0
-6 9 10 -26 -27 36 -37 -38 0
-7 -18 -34 0
-4 5 7 -8 -25 36 -37 -38 0
-6 18 34 0
-8 -18 -34 0
-2 15 31 0
-5 9 10 -26 -27 36 -37 -38 0
-4 5 6 7 8 9 10 11 -28 36 -37 -38 0
-8 9 10 -26 -27 36 -37 -38 0
-8 9 10 11 12 13 -26 36 -37 -38 0
-4 5 7 9 -10 -25 36 -37 -38 0
34 36 0
-10 -12 20 21 -22 -25 -31 -32 -33 -34 -35 -36 0
-6 -18 -34 0
-5 -19 -35 0
3 4 5 6 19 -35 0
-6 -19 -35 0
3 4 5 6 -24 38 0
-6 24 38 0
35 36 0
-10 -12 20 21 22 25 -31 -32 -33 -34 -35 -36 0
1 2 3 4 5 6 7 8 9 10 11 12 13 -14 30 36 -37 -38 0
1 2 -8 11 -12 -29 36 -37 -38 0
1 2 -9 11 -12 -29 36 -37 -38 0
7 8 9 10 11 12 13 14 -30 36 -37 -38 0
-8 12 -13 20 -21 -22 -25 -31 -32 -33 -34 -35 -36 0
1 2 -10 11 -12 -29 36 -37 -38 0
-3 16 32 0
7 8 9 10 12 -13 -20 -21 -22 -25 -31 -32 -33 -34 -35 -36 0
-7 -12 20 21 22 25 -31 -32 -33 -34 -35 -36 0
-7 12 -13 20 -21 22 25 -31 -32 -33 -34 -35 -36 0
-7 -12 20 21 -22 -25 -31 -32 -33 -34 -35 -36 0
-9 13 20 21 22 25 -31 -32 -33 -34 -35 -36 0
-9 12 -13 20 -21 22 25 -31 -32 -33 -34 -35 -36 0
-5 18 34 0
-9 12 -13 20 -21 -22 -25 -31 -32 -33 -34 -35 -36 0
-8 18 34 0
-9 -12 20 21 22 25 -31 -32 -33 -34 -35 -36 0
7 8 9 10 12 -13 -20 -21 22 25 -31 -32 -33 -34 -35 -36 0
-7 18 34 0
7 8 9 10 -12 -20 21 22 25 -31 -32 -33 -34 -35 -36 0
-9 13 20 21 -22 -25 -31 -32 -33 -34 -35 -36 0
7 8 9 10 -12 -20 21 -22 -25 -31 -32 -33 -34 -35 -36 0
1 2 -14 -23 37 0
-5 19 35 0
-7 12 -13 20 -21 -22 -25 -31 -32 -33 -34 -35 -36 0
7 8 9 10 13 -20 21 22 25 -31 -32 -33 -34 -35 -36 0
-1 23 37 0
-7 13 20 21 -22 -25 -31 -32 -33 -34 -35 -36 0
14 23 37 0
-7 13 20 21 22 25 -31 -32 -33 -34 -35 -36 0
-8 -12 20 21 -22 -25 -31 -32 -33 -34 -35 -36 0
7 8 9 10 13 -20 21 -22 -25 -31 -32 -33 -34 -35 -36 0
-8 -12 20 21 22 25 -31 -32 -33 -34 -35 -36 0
1 2 3 4 5 6 7 8 9 10 12 13 14 26 36 -37 -38 0
-8 13 20 21 -22 -25 -31 -32 -33 -34 -35 -36 0
31 36 0
-8 13 20 21 22 25 -31 -32 -33 -34 -35 -36 0
-3 9 10 -26 -27 36 -37 -38 0
-2 -15 -31 0
-1 5 6 7 8 9 10 11 -28 36 -37 -38 0
-1 5 7 -8 -25 36 -37 -38 0
5 6 7 8 9 10 11 -12 -28 36 -37 -38 0
1 2 3 4 5 6 7 8 9 10 -11 27 36 -37 -38 0
-4 5 -6 -25 36 -37 -38 0
3 4 5 6 -19 35 0
-1 9 10 -26 -27 36 -37 -38 0
-8 12 -13 20 -21 22 25 -31 -32 -33 -34 -35 -36 0
-4 24 38 0
-4 19 35 0
-3 -19 -35 0
-5 9 10 11 12 13 -26 36 -37 -38 0
-3 5 7 -8 -25 36 -37 -38 0
-3 9 10 11 12 13 -26 36 -37 -38 0
1 2 3 4 5 7 -8 25 36 -37 -38 0
-3 5 7 9 -10 -25 36 -37 -38 0
1 2 3 4 5 7 9 -10 25 36 -37 -38 0
-4 9 10 -26 -27 36 -37 -38 0
-3 5 6 7 8 9 10 11 -28 36 -37 -38 0
-1 9 10 11 12 13 -26 36 -37 -38 0
1 2 3 4 5 6 7 8 9 10 11 -12 29 36 -37 -38 0
-5 7 8 9 10 11 12 13 -30 36 -37 -38 0
1 2 -5 11 -12 -29 36 -37 -38 0
-3 24 38 0
-6 7 8 9 10 11 12 13 -30 36 -37 -38 0
5 6 7 8 -18 34 0
-1 7 8 9 10 11 12 13 -30 36 -37 -38 0
-3 7 8 9 10 11 12 13 -30 36 -37 -38 0
1 2 -3 11 -12 -29 36 -37 -38 0
-4 -16 -32 0
-4 16 32 0
-6 9 10 11 12 13 -26 36 -37 -38 0
1 2 -7 11 -12 -29 36 -37 -38 0
-9 -12 20 21 -22 -25 -31 -32 -33 -34 -35 -36 0
-1 15 31 0
-2 7 8 9 10 11 12 13 -30 36 -37 -38 0
-4 7 8 9 10 11 12 13 -30 36 -37 -38 0
1 2 -4 11 -12 -29 36 -37 -38 0
-2 9 10 -26 -27 36 -37 -38 0
-2 5 -6 -25 36 -37 -38 0
-2 5 7 -8 -25 36 -37 -38 0
-2 9 10 11 12 13 -26 36 -37 -38 0
1 2 -6 11 -12 -29 36 -37 -38 0
-2 5 7 9 -10 -25 36 -37 -38 0
-10 13 20 21 -22 -25 -31 -32 -33 -34 -35 -36 0
-2 5 6 7 8 9 10 11 -28 36 -37 -38 0
5 6 7 8 18 -34 0
9 10 11 12 13 -14 -26 36 -37 -38 0
1 2 3 4 5 -6 25 36 -37 -38 0
1 2 3 4 5 6 7 8 9 10 11 12 -13 28 36 -37 -38 0
-3 5 -6 -25 36 -37 -38 0
-6 19 35 0
-2 23 37 0
5 6 7 8 9 10 11 13 -28 36 -37 -38 0
-7 9 10 11 12 13 -26 36 -37 -38 0
-7 9 10 -26 -27 36 -37 -38 0
-10 13 20 21 22 25 -31 -32 -33 -34 -35 -36 0
-4 9 10 11 12 13 -26 36 -37 -38 0
-5 24 38 0
1 2 3 4 5 6 7 8 9 10 -11 26 36 -37 -38 0
